
;this file is automatically generated: Tue Feb 23 13:38:00 CST 2021

;declarations generated

(declare-fun oclExcludes ( Int Int) Bool)
(declare-fun type_479c0da3_fa7e_47d8_9b72_a8b475c4b4af_Class41 ( Int) Bool)
(declare-fun type_479c0da3_fa7e_47d8_9b72_a8b475c4b4af_Class40 ( Int) Bool)
(declare-fun type_479c0da3_fa7e_47d8_9b72_a8b475c4b4af_Class45 ( Int) Bool)
(declare-fun type_479c0da3_fa7e_47d8_9b72_a8b475c4b4af_Class44 ( Int) Bool)
(declare-fun type_479c0da3_fa7e_47d8_9b72_a8b475c4b4af_Class43 ( Int) Bool)
(declare-fun type_479c0da3_fa7e_47d8_9b72_a8b475c4b4af_Class42 ( Int) Bool)
(declare-fun Cardinality ( Int) Int)
(declare-fun type_479c0da3_fa7e_47d8_9b72_a8b475c4b4af_Class23 ( Int) Bool)
(declare-fun type_479c0da3_fa7e_47d8_9b72_a8b475c4b4af_Class22 ( Int) Bool)
(declare-fun type_479c0da3_fa7e_47d8_9b72_a8b475c4b4af_Class21 ( Int) Bool)
(declare-fun type_479c0da3_fa7e_47d8_9b72_a8b475c4b4af_Class20 ( Int) Bool)
(declare-fun type_479c0da3_fa7e_47d8_9b72_a8b475c4b4af_Class27 ( Int) Bool)
(declare-fun type_479c0da3_fa7e_47d8_9b72_a8b475c4b4af_Class26 ( Int) Bool)
(declare-fun type_479c0da3_fa7e_47d8_9b72_a8b475c4b4af_Class25 ( Int) Bool)
(declare-fun type_479c0da3_fa7e_47d8_9b72_a8b475c4b4af_Class24 ( Int) Bool)
(declare-fun type_479c0da3_fa7e_47d8_9b72_a8b475c4b4af_Class29 ( Int) Bool)
(declare-fun type_479c0da3_fa7e_47d8_9b72_a8b475c4b4af_Class28 ( Int) Bool)
(declare-fun class12_Class12IntAttr3 ( Int) Int)
(declare-fun class12_Class12IntAttr2 ( Int) Int)
(declare-fun type_479c0da3_fa7e_47d8_9b72_a8b475c4b4af_Class30 ( Int) Bool)
(declare-fun type_479c0da3_fa7e_47d8_9b72_a8b475c4b4af_Class34 ( Int) Bool)
(declare-fun type_479c0da3_fa7e_47d8_9b72_a8b475c4b4af_Class33 ( Int) Bool)
(declare-fun type_479c0da3_fa7e_47d8_9b72_a8b475c4b4af_Class32 ( Int) Bool)
(declare-fun type_479c0da3_fa7e_47d8_9b72_a8b475c4b4af_Class31 ( Int) Bool)
(declare-fun type_479c0da3_fa7e_47d8_9b72_a8b475c4b4af_Class38 ( Int) Bool)
(declare-fun type_479c0da3_fa7e_47d8_9b72_a8b475c4b4af_Class37 ( Int) Bool)
(declare-fun type_479c0da3_fa7e_47d8_9b72_a8b475c4b4af_Class36 ( Int) Bool)
(declare-fun type_479c0da3_fa7e_47d8_9b72_a8b475c4b4af_Class35 ( Int) Bool)
(declare-fun type_479c0da3_fa7e_47d8_9b72_a8b475c4b4af_Class39 ( Int) Bool)
(declare-fun type_479c0da3_fa7e_47d8_9b72_a8b475c4b4af_Class0 ( Int) Bool)
(declare-fun type_479c0da3_fa7e_47d8_9b72_a8b475c4b4af_Class1 ( Int) Bool)
(declare-fun type_479c0da3_fa7e_47d8_9b72_a8b475c4b4af_Class2 ( Int) Bool)
(declare-fun type_479c0da3_fa7e_47d8_9b72_a8b475c4b4af_Class3 ( Int) Bool)
(declare-fun type_479c0da3_fa7e_47d8_9b72_a8b475c4b4af_Class4 ( Int) Bool)
(declare-fun type_479c0da3_fa7e_47d8_9b72_a8b475c4b4af_Class5 ( Int) Bool)
(declare-fun type_479c0da3_fa7e_47d8_9b72_a8b475c4b4af_Class6 ( Int) Bool)
(declare-fun type_479c0da3_fa7e_47d8_9b72_a8b475c4b4af_Class7 ( Int) Bool)
(declare-fun type_479c0da3_fa7e_47d8_9b72_a8b475c4b4af_Class8 ( Int) Bool)
(declare-fun type_479c0da3_fa7e_47d8_9b72_a8b475c4b4af_Class9 ( Int) Bool)
(declare-fun oclSelect ( Int Bool) Int)
(declare-fun type_479c0da3_fa7e_47d8_9b72_a8b475c4b4af_Class12 ( Int) Bool)
(declare-fun type_479c0da3_fa7e_47d8_9b72_a8b475c4b4af_Class11 ( Int) Bool)
(declare-fun type_479c0da3_fa7e_47d8_9b72_a8b475c4b4af_Class10 ( Int) Bool)
(declare-fun type_479c0da3_fa7e_47d8_9b72_a8b475c4b4af_Class16 ( Int) Bool)
(declare-fun type_479c0da3_fa7e_47d8_9b72_a8b475c4b4af_Class15 ( Int) Bool)
(declare-fun type_479c0da3_fa7e_47d8_9b72_a8b475c4b4af_Class14 ( Int) Bool)
(declare-fun Enum0 ( Int) Int)
(declare-fun type_479c0da3_fa7e_47d8_9b72_a8b475c4b4af_Class13 ( Int) Bool)
(declare-fun Enum1 ( Int) Int)
(declare-fun Enum2 ( Int) Int)
(declare-fun type_479c0da3_fa7e_47d8_9b72_a8b475c4b4af_Class19 ( Int) Bool)
(declare-fun type_479c0da3_fa7e_47d8_9b72_a8b475c4b4af_Class18 ( Int) Bool)
(declare-fun type_479c0da3_fa7e_47d8_9b72_a8b475c4b4af_Class17 ( Int) Bool)
(declare-fun container_ ( Int) Int)
(declare-fun oclIncludes ( Int Int) Bool)
(declare-fun obj_93327508_f905_4518_90b4_2d645f863615 ( Int) Int)
(declare-fun ObjAt ( Int Int) Int)

;formula(s) generated
(assert (! (forall ((v Int)) (=> (and (and (and (and ( type_479c0da3_fa7e_47d8_9b72_a8b475c4b4af_Class12 v )  ( type_479c0da3_fa7e_47d8_9b72_a8b475c4b4af_Class22 v ) ) ( type_479c0da3_fa7e_47d8_9b72_a8b475c4b4af_Class35 v ) ) ( type_479c0da3_fa7e_47d8_9b72_a8b475c4b4af_Class0 v ) ) ( type_479c0da3_fa7e_47d8_9b72_a8b475c4b4af_Class2 v ) ) (or (not (= ( class12_Class12IntAttr3 ( obj_93327508_f905_4518_90b4_2d645f863615 v )  )  15) ) (and (forall ((c2_1 Int)(c2_2 Int)) (=> (and (and (and (and (and ( type_479c0da3_fa7e_47d8_9b72_a8b475c4b4af_Class12 c2_1 )  ( type_479c0da3_fa7e_47d8_9b72_a8b475c4b4af_Class22 c2_1 ) ) ( type_479c0da3_fa7e_47d8_9b72_a8b475c4b4af_Class35 c2_1 ) ) ( type_479c0da3_fa7e_47d8_9b72_a8b475c4b4af_Class0 c2_1 ) ) ( type_479c0da3_fa7e_47d8_9b72_a8b475c4b4af_Class2 c2_1 ) ) (and (and (and (and ( type_479c0da3_fa7e_47d8_9b72_a8b475c4b4af_Class12 c2_2 )  ( type_479c0da3_fa7e_47d8_9b72_a8b475c4b4af_Class22 c2_2 ) ) ( type_479c0da3_fa7e_47d8_9b72_a8b475c4b4af_Class35 c2_2 ) ) ( type_479c0da3_fa7e_47d8_9b72_a8b475c4b4af_Class0 c2_2 ) ) ( type_479c0da3_fa7e_47d8_9b72_a8b475c4b4af_Class2 c2_2 ) )) (>= ( class12_Class12IntAttr2 ( obj_93327508_f905_4518_90b4_2d645f863615 c2_1 )  )  ( class12_Class12IntAttr3 ( obj_93327508_f905_4518_90b4_2d645f863615 c2_2 )  ) ))) (forall ((c2_1 Int)(c2_2 Int)) (=> (and (and (and (and (and ( type_479c0da3_fa7e_47d8_9b72_a8b475c4b4af_Class12 c2_1 )  ( type_479c0da3_fa7e_47d8_9b72_a8b475c4b4af_Class22 c2_1 ) ) ( type_479c0da3_fa7e_47d8_9b72_a8b475c4b4af_Class35 c2_1 ) ) ( type_479c0da3_fa7e_47d8_9b72_a8b475c4b4af_Class0 c2_1 ) ) ( type_479c0da3_fa7e_47d8_9b72_a8b475c4b4af_Class2 c2_1 ) ) (and (and (and (and ( type_479c0da3_fa7e_47d8_9b72_a8b475c4b4af_Class12 c2_2 )  ( type_479c0da3_fa7e_47d8_9b72_a8b475c4b4af_Class22 c2_2 ) ) ( type_479c0da3_fa7e_47d8_9b72_a8b475c4b4af_Class35 c2_2 ) ) ( type_479c0da3_fa7e_47d8_9b72_a8b475c4b4af_Class0 c2_2 ) ) ( type_479c0da3_fa7e_47d8_9b72_a8b475c4b4af_Class2 c2_2 ) )) (<= ( class12_Class12IntAttr2 ( obj_93327508_f905_4518_90b4_2d645f863615 c2_1 )  )  ( class12_Class12IntAttr3 ( obj_93327508_f905_4518_90b4_2d645f863615 c2_2 )  ) ))))))):named l0))
(assert (! (forall ((v Int)) (=> (and (and (and (and ( type_479c0da3_fa7e_47d8_9b72_a8b475c4b4af_Class12 v )  ( type_479c0da3_fa7e_47d8_9b72_a8b475c4b4af_Class22 v ) ) ( type_479c0da3_fa7e_47d8_9b72_a8b475c4b4af_Class35 v ) ) ( type_479c0da3_fa7e_47d8_9b72_a8b475c4b4af_Class0 v ) ) ( type_479c0da3_fa7e_47d8_9b72_a8b475c4b4af_Class2 v ) ) (> ( class12_Class12IntAttr3 ( obj_93327508_f905_4518_90b4_2d645f863615 v )  )  15))):named l1))
(assert (! (exists ((o Int)) (and (and (and ( type_479c0da3_fa7e_47d8_9b72_a8b475c4b4af_Class0 ( obj_93327508_f905_4518_90b4_2d645f863615 o )  )  ( type_479c0da3_fa7e_47d8_9b72_a8b475c4b4af_Class22 ( obj_93327508_f905_4518_90b4_2d645f863615 o )  ) ) ( type_479c0da3_fa7e_47d8_9b72_a8b475c4b4af_Class35 ( obj_93327508_f905_4518_90b4_2d645f863615 o )  ) ) ( type_479c0da3_fa7e_47d8_9b72_a8b475c4b4af_Class2 ( obj_93327508_f905_4518_90b4_2d645f863615 o )  ) )):named c0))
(assert (! (exists ((o Int)) ( type_479c0da3_fa7e_47d8_9b72_a8b475c4b4af_Class1 ( obj_93327508_f905_4518_90b4_2d645f863615 o )  ) ):named c1))
(assert (! (exists ((o Int)) (and (and (and (and ( type_479c0da3_fa7e_47d8_9b72_a8b475c4b4af_Class10 ( obj_93327508_f905_4518_90b4_2d645f863615 o )  )  ( type_479c0da3_fa7e_47d8_9b72_a8b475c4b4af_Class16 ( obj_93327508_f905_4518_90b4_2d645f863615 o )  ) ) ( type_479c0da3_fa7e_47d8_9b72_a8b475c4b4af_Class15 ( obj_93327508_f905_4518_90b4_2d645f863615 o )  ) ) ( type_479c0da3_fa7e_47d8_9b72_a8b475c4b4af_Class41 ( obj_93327508_f905_4518_90b4_2d645f863615 o )  ) ) ( type_479c0da3_fa7e_47d8_9b72_a8b475c4b4af_Class2 ( obj_93327508_f905_4518_90b4_2d645f863615 o )  ) )):named c2))
(assert (! (exists ((o Int)) ( type_479c0da3_fa7e_47d8_9b72_a8b475c4b4af_Class11 ( obj_93327508_f905_4518_90b4_2d645f863615 o )  ) ):named c3))
(assert (! (exists ((o Int)) (and (and (and (and ( type_479c0da3_fa7e_47d8_9b72_a8b475c4b4af_Class12 ( obj_93327508_f905_4518_90b4_2d645f863615 o )  )  ( type_479c0da3_fa7e_47d8_9b72_a8b475c4b4af_Class22 ( obj_93327508_f905_4518_90b4_2d645f863615 o )  ) ) ( type_479c0da3_fa7e_47d8_9b72_a8b475c4b4af_Class35 ( obj_93327508_f905_4518_90b4_2d645f863615 o )  ) ) ( type_479c0da3_fa7e_47d8_9b72_a8b475c4b4af_Class0 ( obj_93327508_f905_4518_90b4_2d645f863615 o )  ) ) ( type_479c0da3_fa7e_47d8_9b72_a8b475c4b4af_Class2 ( obj_93327508_f905_4518_90b4_2d645f863615 o )  ) )):named c4))
(assert (! (exists ((o Int)) (and (and (and ( type_479c0da3_fa7e_47d8_9b72_a8b475c4b4af_Class13 ( obj_93327508_f905_4518_90b4_2d645f863615 o )  )  ( type_479c0da3_fa7e_47d8_9b72_a8b475c4b4af_Class16 ( obj_93327508_f905_4518_90b4_2d645f863615 o )  ) ) ( type_479c0da3_fa7e_47d8_9b72_a8b475c4b4af_Class15 ( obj_93327508_f905_4518_90b4_2d645f863615 o )  ) ) ( type_479c0da3_fa7e_47d8_9b72_a8b475c4b4af_Class2 ( obj_93327508_f905_4518_90b4_2d645f863615 o )  ) )):named c5))
(assert (! (exists ((o Int)) (and (and (and (and (and (and (and ( type_479c0da3_fa7e_47d8_9b72_a8b475c4b4af_Class14 ( obj_93327508_f905_4518_90b4_2d645f863615 o )  )  ( type_479c0da3_fa7e_47d8_9b72_a8b475c4b4af_Class33 ( obj_93327508_f905_4518_90b4_2d645f863615 o )  ) ) ( type_479c0da3_fa7e_47d8_9b72_a8b475c4b4af_Class13 ( obj_93327508_f905_4518_90b4_2d645f863615 o )  ) ) ( type_479c0da3_fa7e_47d8_9b72_a8b475c4b4af_Class16 ( obj_93327508_f905_4518_90b4_2d645f863615 o )  ) ) ( type_479c0da3_fa7e_47d8_9b72_a8b475c4b4af_Class15 ( obj_93327508_f905_4518_90b4_2d645f863615 o )  ) ) ( type_479c0da3_fa7e_47d8_9b72_a8b475c4b4af_Class4 ( obj_93327508_f905_4518_90b4_2d645f863615 o )  ) ) ( type_479c0da3_fa7e_47d8_9b72_a8b475c4b4af_Class41 ( obj_93327508_f905_4518_90b4_2d645f863615 o )  ) ) ( type_479c0da3_fa7e_47d8_9b72_a8b475c4b4af_Class2 ( obj_93327508_f905_4518_90b4_2d645f863615 o )  ) )):named c6))
(assert (! (exists ((o Int)) (and ( type_479c0da3_fa7e_47d8_9b72_a8b475c4b4af_Class15 ( obj_93327508_f905_4518_90b4_2d645f863615 o )  )  ( type_479c0da3_fa7e_47d8_9b72_a8b475c4b4af_Class2 ( obj_93327508_f905_4518_90b4_2d645f863615 o )  ) )):named c7))
(assert (! (exists ((o Int)) (and (and ( type_479c0da3_fa7e_47d8_9b72_a8b475c4b4af_Class16 ( obj_93327508_f905_4518_90b4_2d645f863615 o )  )  ( type_479c0da3_fa7e_47d8_9b72_a8b475c4b4af_Class15 ( obj_93327508_f905_4518_90b4_2d645f863615 o )  ) ) ( type_479c0da3_fa7e_47d8_9b72_a8b475c4b4af_Class2 ( obj_93327508_f905_4518_90b4_2d645f863615 o )  ) )):named c8))
(assert (! (exists ((o Int)) (and (and (and (and ( type_479c0da3_fa7e_47d8_9b72_a8b475c4b4af_Class17 ( obj_93327508_f905_4518_90b4_2d645f863615 o )  )  ( type_479c0da3_fa7e_47d8_9b72_a8b475c4b4af_Class24 ( obj_93327508_f905_4518_90b4_2d645f863615 o )  ) ) ( type_479c0da3_fa7e_47d8_9b72_a8b475c4b4af_Class26 ( obj_93327508_f905_4518_90b4_2d645f863615 o )  ) ) ( type_479c0da3_fa7e_47d8_9b72_a8b475c4b4af_Class32 ( obj_93327508_f905_4518_90b4_2d645f863615 o )  ) ) ( type_479c0da3_fa7e_47d8_9b72_a8b475c4b4af_Class2 ( obj_93327508_f905_4518_90b4_2d645f863615 o )  ) )):named c9))
(assert (! (exists ((o Int)) ( type_479c0da3_fa7e_47d8_9b72_a8b475c4b4af_Class18 ( obj_93327508_f905_4518_90b4_2d645f863615 o )  ) ):named c10))
(assert (! (exists ((o Int)) ( type_479c0da3_fa7e_47d8_9b72_a8b475c4b4af_Class19 ( obj_93327508_f905_4518_90b4_2d645f863615 o )  ) ):named c11))
(assert (! (exists ((o Int)) ( type_479c0da3_fa7e_47d8_9b72_a8b475c4b4af_Class2 ( obj_93327508_f905_4518_90b4_2d645f863615 o )  ) ):named c12))
(assert (! (exists ((o Int)) (and (and ( type_479c0da3_fa7e_47d8_9b72_a8b475c4b4af_Class20 ( obj_93327508_f905_4518_90b4_2d645f863615 o )  )  ( type_479c0da3_fa7e_47d8_9b72_a8b475c4b4af_Class21 ( obj_93327508_f905_4518_90b4_2d645f863615 o )  ) ) ( type_479c0da3_fa7e_47d8_9b72_a8b475c4b4af_Class2 ( obj_93327508_f905_4518_90b4_2d645f863615 o )  ) )):named c13))
(assert (! (exists ((o Int)) (and ( type_479c0da3_fa7e_47d8_9b72_a8b475c4b4af_Class21 ( obj_93327508_f905_4518_90b4_2d645f863615 o )  )  ( type_479c0da3_fa7e_47d8_9b72_a8b475c4b4af_Class2 ( obj_93327508_f905_4518_90b4_2d645f863615 o )  ) )):named c14))
(assert (! (exists ((o Int)) (and (and ( type_479c0da3_fa7e_47d8_9b72_a8b475c4b4af_Class22 ( obj_93327508_f905_4518_90b4_2d645f863615 o )  )  ( type_479c0da3_fa7e_47d8_9b72_a8b475c4b4af_Class35 ( obj_93327508_f905_4518_90b4_2d645f863615 o )  ) ) ( type_479c0da3_fa7e_47d8_9b72_a8b475c4b4af_Class2 ( obj_93327508_f905_4518_90b4_2d645f863615 o )  ) )):named c15))
(assert (! (exists ((o Int)) (and (and (and (and (and (and ( type_479c0da3_fa7e_47d8_9b72_a8b475c4b4af_Class23 ( obj_93327508_f905_4518_90b4_2d645f863615 o )  )  ( type_479c0da3_fa7e_47d8_9b72_a8b475c4b4af_Class12 ( obj_93327508_f905_4518_90b4_2d645f863615 o )  ) ) ( type_479c0da3_fa7e_47d8_9b72_a8b475c4b4af_Class22 ( obj_93327508_f905_4518_90b4_2d645f863615 o )  ) ) ( type_479c0da3_fa7e_47d8_9b72_a8b475c4b4af_Class25 ( obj_93327508_f905_4518_90b4_2d645f863615 o )  ) ) ( type_479c0da3_fa7e_47d8_9b72_a8b475c4b4af_Class35 ( obj_93327508_f905_4518_90b4_2d645f863615 o )  ) ) ( type_479c0da3_fa7e_47d8_9b72_a8b475c4b4af_Class0 ( obj_93327508_f905_4518_90b4_2d645f863615 o )  ) ) ( type_479c0da3_fa7e_47d8_9b72_a8b475c4b4af_Class2 ( obj_93327508_f905_4518_90b4_2d645f863615 o )  ) )):named c16))
(assert (! (exists ((o Int)) (and (and (and ( type_479c0da3_fa7e_47d8_9b72_a8b475c4b4af_Class24 ( obj_93327508_f905_4518_90b4_2d645f863615 o )  )  ( type_479c0da3_fa7e_47d8_9b72_a8b475c4b4af_Class26 ( obj_93327508_f905_4518_90b4_2d645f863615 o )  ) ) ( type_479c0da3_fa7e_47d8_9b72_a8b475c4b4af_Class32 ( obj_93327508_f905_4518_90b4_2d645f863615 o )  ) ) ( type_479c0da3_fa7e_47d8_9b72_a8b475c4b4af_Class2 ( obj_93327508_f905_4518_90b4_2d645f863615 o )  ) )):named c17))
(assert (! (exists ((o Int)) (and (and (and (and (and ( type_479c0da3_fa7e_47d8_9b72_a8b475c4b4af_Class25 ( obj_93327508_f905_4518_90b4_2d645f863615 o )  )  ( type_479c0da3_fa7e_47d8_9b72_a8b475c4b4af_Class12 ( obj_93327508_f905_4518_90b4_2d645f863615 o )  ) ) ( type_479c0da3_fa7e_47d8_9b72_a8b475c4b4af_Class22 ( obj_93327508_f905_4518_90b4_2d645f863615 o )  ) ) ( type_479c0da3_fa7e_47d8_9b72_a8b475c4b4af_Class35 ( obj_93327508_f905_4518_90b4_2d645f863615 o )  ) ) ( type_479c0da3_fa7e_47d8_9b72_a8b475c4b4af_Class0 ( obj_93327508_f905_4518_90b4_2d645f863615 o )  ) ) ( type_479c0da3_fa7e_47d8_9b72_a8b475c4b4af_Class2 ( obj_93327508_f905_4518_90b4_2d645f863615 o )  ) )):named c18))
(assert (! (exists ((o Int)) (and (and ( type_479c0da3_fa7e_47d8_9b72_a8b475c4b4af_Class26 ( obj_93327508_f905_4518_90b4_2d645f863615 o )  )  ( type_479c0da3_fa7e_47d8_9b72_a8b475c4b4af_Class32 ( obj_93327508_f905_4518_90b4_2d645f863615 o )  ) ) ( type_479c0da3_fa7e_47d8_9b72_a8b475c4b4af_Class2 ( obj_93327508_f905_4518_90b4_2d645f863615 o )  ) )):named c19))
(assert (! (exists ((o Int)) (and ( type_479c0da3_fa7e_47d8_9b72_a8b475c4b4af_Class27 ( obj_93327508_f905_4518_90b4_2d645f863615 o )  )  ( type_479c0da3_fa7e_47d8_9b72_a8b475c4b4af_Class2 ( obj_93327508_f905_4518_90b4_2d645f863615 o )  ) )):named c20))
(assert (! (exists ((o Int)) ( type_479c0da3_fa7e_47d8_9b72_a8b475c4b4af_Class28 ( obj_93327508_f905_4518_90b4_2d645f863615 o )  ) ):named c21))
(assert (! (exists ((o Int)) ( type_479c0da3_fa7e_47d8_9b72_a8b475c4b4af_Class29 ( obj_93327508_f905_4518_90b4_2d645f863615 o )  ) ):named c22))
(assert (! (exists ((o Int)) ( type_479c0da3_fa7e_47d8_9b72_a8b475c4b4af_Class3 ( obj_93327508_f905_4518_90b4_2d645f863615 o )  ) ):named c23))
(assert (! (exists ((o Int)) (and ( type_479c0da3_fa7e_47d8_9b72_a8b475c4b4af_Class30 ( obj_93327508_f905_4518_90b4_2d645f863615 o )  )  ( type_479c0da3_fa7e_47d8_9b72_a8b475c4b4af_Class2 ( obj_93327508_f905_4518_90b4_2d645f863615 o )  ) )):named c24))
(assert (! (exists ((o Int)) (and (and (and (and ( type_479c0da3_fa7e_47d8_9b72_a8b475c4b4af_Class31 ( obj_93327508_f905_4518_90b4_2d645f863615 o )  )  ( type_479c0da3_fa7e_47d8_9b72_a8b475c4b4af_Class16 ( obj_93327508_f905_4518_90b4_2d645f863615 o )  ) ) ( type_479c0da3_fa7e_47d8_9b72_a8b475c4b4af_Class15 ( obj_93327508_f905_4518_90b4_2d645f863615 o )  ) ) ( type_479c0da3_fa7e_47d8_9b72_a8b475c4b4af_Class41 ( obj_93327508_f905_4518_90b4_2d645f863615 o )  ) ) ( type_479c0da3_fa7e_47d8_9b72_a8b475c4b4af_Class2 ( obj_93327508_f905_4518_90b4_2d645f863615 o )  ) )):named c25))
(assert (! (exists ((o Int)) (and ( type_479c0da3_fa7e_47d8_9b72_a8b475c4b4af_Class32 ( obj_93327508_f905_4518_90b4_2d645f863615 o )  )  ( type_479c0da3_fa7e_47d8_9b72_a8b475c4b4af_Class2 ( obj_93327508_f905_4518_90b4_2d645f863615 o )  ) )):named c26))
(assert (! (exists ((o Int)) (and (and (and (and (and ( type_479c0da3_fa7e_47d8_9b72_a8b475c4b4af_Class33 ( obj_93327508_f905_4518_90b4_2d645f863615 o )  )  ( type_479c0da3_fa7e_47d8_9b72_a8b475c4b4af_Class13 ( obj_93327508_f905_4518_90b4_2d645f863615 o )  ) ) ( type_479c0da3_fa7e_47d8_9b72_a8b475c4b4af_Class16 ( obj_93327508_f905_4518_90b4_2d645f863615 o )  ) ) ( type_479c0da3_fa7e_47d8_9b72_a8b475c4b4af_Class15 ( obj_93327508_f905_4518_90b4_2d645f863615 o )  ) ) ( type_479c0da3_fa7e_47d8_9b72_a8b475c4b4af_Class41 ( obj_93327508_f905_4518_90b4_2d645f863615 o )  ) ) ( type_479c0da3_fa7e_47d8_9b72_a8b475c4b4af_Class2 ( obj_93327508_f905_4518_90b4_2d645f863615 o )  ) )):named c27))
(assert (! (exists ((o Int)) ( type_479c0da3_fa7e_47d8_9b72_a8b475c4b4af_Class34 ( obj_93327508_f905_4518_90b4_2d645f863615 o )  ) ):named c28))
(assert (! (exists ((o Int)) (and ( type_479c0da3_fa7e_47d8_9b72_a8b475c4b4af_Class35 ( obj_93327508_f905_4518_90b4_2d645f863615 o )  )  ( type_479c0da3_fa7e_47d8_9b72_a8b475c4b4af_Class2 ( obj_93327508_f905_4518_90b4_2d645f863615 o )  ) )):named c29))
(assert (! (exists ((o Int)) ( type_479c0da3_fa7e_47d8_9b72_a8b475c4b4af_Class36 ( obj_93327508_f905_4518_90b4_2d645f863615 o )  ) ):named c30))
(assert (! (exists ((o Int)) ( type_479c0da3_fa7e_47d8_9b72_a8b475c4b4af_Class37 ( obj_93327508_f905_4518_90b4_2d645f863615 o )  ) ):named c31))
(assert (! (exists ((o Int)) (and ( type_479c0da3_fa7e_47d8_9b72_a8b475c4b4af_Class38 ( obj_93327508_f905_4518_90b4_2d645f863615 o )  )  ( type_479c0da3_fa7e_47d8_9b72_a8b475c4b4af_Class2 ( obj_93327508_f905_4518_90b4_2d645f863615 o )  ) )):named c32))
(assert (! (exists ((o Int)) ( type_479c0da3_fa7e_47d8_9b72_a8b475c4b4af_Class39 ( obj_93327508_f905_4518_90b4_2d645f863615 o )  ) ):named c33))
(assert (! (exists ((o Int)) (and (and (and (and (and (and ( type_479c0da3_fa7e_47d8_9b72_a8b475c4b4af_Class4 ( obj_93327508_f905_4518_90b4_2d645f863615 o )  )  ( type_479c0da3_fa7e_47d8_9b72_a8b475c4b4af_Class33 ( obj_93327508_f905_4518_90b4_2d645f863615 o )  ) ) ( type_479c0da3_fa7e_47d8_9b72_a8b475c4b4af_Class13 ( obj_93327508_f905_4518_90b4_2d645f863615 o )  ) ) ( type_479c0da3_fa7e_47d8_9b72_a8b475c4b4af_Class16 ( obj_93327508_f905_4518_90b4_2d645f863615 o )  ) ) ( type_479c0da3_fa7e_47d8_9b72_a8b475c4b4af_Class15 ( obj_93327508_f905_4518_90b4_2d645f863615 o )  ) ) ( type_479c0da3_fa7e_47d8_9b72_a8b475c4b4af_Class41 ( obj_93327508_f905_4518_90b4_2d645f863615 o )  ) ) ( type_479c0da3_fa7e_47d8_9b72_a8b475c4b4af_Class2 ( obj_93327508_f905_4518_90b4_2d645f863615 o )  ) )):named c34))
(assert (! (exists ((o Int)) (and (and (and ( type_479c0da3_fa7e_47d8_9b72_a8b475c4b4af_Class40 ( obj_93327508_f905_4518_90b4_2d645f863615 o )  )  ( type_479c0da3_fa7e_47d8_9b72_a8b475c4b4af_Class21 ( obj_93327508_f905_4518_90b4_2d645f863615 o )  ) ) ( type_479c0da3_fa7e_47d8_9b72_a8b475c4b4af_Class2 ( obj_93327508_f905_4518_90b4_2d645f863615 o )  ) ) ( type_479c0da3_fa7e_47d8_9b72_a8b475c4b4af_Class20 ( obj_93327508_f905_4518_90b4_2d645f863615 o )  ) )):named c35))
(assert (! (exists ((o Int)) (and (and (and ( type_479c0da3_fa7e_47d8_9b72_a8b475c4b4af_Class41 ( obj_93327508_f905_4518_90b4_2d645f863615 o )  )  ( type_479c0da3_fa7e_47d8_9b72_a8b475c4b4af_Class16 ( obj_93327508_f905_4518_90b4_2d645f863615 o )  ) ) ( type_479c0da3_fa7e_47d8_9b72_a8b475c4b4af_Class15 ( obj_93327508_f905_4518_90b4_2d645f863615 o )  ) ) ( type_479c0da3_fa7e_47d8_9b72_a8b475c4b4af_Class2 ( obj_93327508_f905_4518_90b4_2d645f863615 o )  ) )):named c36))
(assert (! (exists ((o Int)) (and (and (and ( type_479c0da3_fa7e_47d8_9b72_a8b475c4b4af_Class42 ( obj_93327508_f905_4518_90b4_2d645f863615 o )  )  ( type_479c0da3_fa7e_47d8_9b72_a8b475c4b4af_Class22 ( obj_93327508_f905_4518_90b4_2d645f863615 o )  ) ) ( type_479c0da3_fa7e_47d8_9b72_a8b475c4b4af_Class35 ( obj_93327508_f905_4518_90b4_2d645f863615 o )  ) ) ( type_479c0da3_fa7e_47d8_9b72_a8b475c4b4af_Class2 ( obj_93327508_f905_4518_90b4_2d645f863615 o )  ) )):named c37))
(assert (! (exists ((o Int)) ( type_479c0da3_fa7e_47d8_9b72_a8b475c4b4af_Class43 ( obj_93327508_f905_4518_90b4_2d645f863615 o )  ) ):named c38))
(assert (! (exists ((o Int)) (and (and (and (and (and (and ( type_479c0da3_fa7e_47d8_9b72_a8b475c4b4af_Class44 ( obj_93327508_f905_4518_90b4_2d645f863615 o )  )  ( type_479c0da3_fa7e_47d8_9b72_a8b475c4b4af_Class33 ( obj_93327508_f905_4518_90b4_2d645f863615 o )  ) ) ( type_479c0da3_fa7e_47d8_9b72_a8b475c4b4af_Class13 ( obj_93327508_f905_4518_90b4_2d645f863615 o )  ) ) ( type_479c0da3_fa7e_47d8_9b72_a8b475c4b4af_Class16 ( obj_93327508_f905_4518_90b4_2d645f863615 o )  ) ) ( type_479c0da3_fa7e_47d8_9b72_a8b475c4b4af_Class15 ( obj_93327508_f905_4518_90b4_2d645f863615 o )  ) ) ( type_479c0da3_fa7e_47d8_9b72_a8b475c4b4af_Class41 ( obj_93327508_f905_4518_90b4_2d645f863615 o )  ) ) ( type_479c0da3_fa7e_47d8_9b72_a8b475c4b4af_Class2 ( obj_93327508_f905_4518_90b4_2d645f863615 o )  ) )):named c39))
(assert (! (exists ((o Int)) ( type_479c0da3_fa7e_47d8_9b72_a8b475c4b4af_Class45 ( obj_93327508_f905_4518_90b4_2d645f863615 o )  ) ):named c40))
(assert (! (exists ((o Int)) ( type_479c0da3_fa7e_47d8_9b72_a8b475c4b4af_Class5 ( obj_93327508_f905_4518_90b4_2d645f863615 o )  ) ):named c41))
(assert (! (exists ((o Int)) (and (and (and (and ( type_479c0da3_fa7e_47d8_9b72_a8b475c4b4af_Class6 ( obj_93327508_f905_4518_90b4_2d645f863615 o )  )  ( type_479c0da3_fa7e_47d8_9b72_a8b475c4b4af_Class22 ( obj_93327508_f905_4518_90b4_2d645f863615 o )  ) ) ( type_479c0da3_fa7e_47d8_9b72_a8b475c4b4af_Class35 ( obj_93327508_f905_4518_90b4_2d645f863615 o )  ) ) ( type_479c0da3_fa7e_47d8_9b72_a8b475c4b4af_Class2 ( obj_93327508_f905_4518_90b4_2d645f863615 o )  ) ) ( type_479c0da3_fa7e_47d8_9b72_a8b475c4b4af_Class42 ( obj_93327508_f905_4518_90b4_2d645f863615 o )  ) )):named c42))
(assert (! (exists ((o Int)) ( type_479c0da3_fa7e_47d8_9b72_a8b475c4b4af_Class7 ( obj_93327508_f905_4518_90b4_2d645f863615 o )  ) ):named c43))
(assert (! (exists ((o Int)) (and (and (and (and (and ( type_479c0da3_fa7e_47d8_9b72_a8b475c4b4af_Class8 ( obj_93327508_f905_4518_90b4_2d645f863615 o )  )  ( type_479c0da3_fa7e_47d8_9b72_a8b475c4b4af_Class16 ( obj_93327508_f905_4518_90b4_2d645f863615 o )  ) ) ( type_479c0da3_fa7e_47d8_9b72_a8b475c4b4af_Class15 ( obj_93327508_f905_4518_90b4_2d645f863615 o )  ) ) ( type_479c0da3_fa7e_47d8_9b72_a8b475c4b4af_Class41 ( obj_93327508_f905_4518_90b4_2d645f863615 o )  ) ) ( type_479c0da3_fa7e_47d8_9b72_a8b475c4b4af_Class10 ( obj_93327508_f905_4518_90b4_2d645f863615 o )  ) ) ( type_479c0da3_fa7e_47d8_9b72_a8b475c4b4af_Class2 ( obj_93327508_f905_4518_90b4_2d645f863615 o )  ) )):named c44))
(assert (! (exists ((o Int)) (and (and (and (and (and (and (and ( type_479c0da3_fa7e_47d8_9b72_a8b475c4b4af_Class9 ( obj_93327508_f905_4518_90b4_2d645f863615 o )  )  ( type_479c0da3_fa7e_47d8_9b72_a8b475c4b4af_Class22 ( obj_93327508_f905_4518_90b4_2d645f863615 o )  ) ) ( type_479c0da3_fa7e_47d8_9b72_a8b475c4b4af_Class35 ( obj_93327508_f905_4518_90b4_2d645f863615 o )  ) ) ( type_479c0da3_fa7e_47d8_9b72_a8b475c4b4af_Class16 ( obj_93327508_f905_4518_90b4_2d645f863615 o )  ) ) ( type_479c0da3_fa7e_47d8_9b72_a8b475c4b4af_Class15 ( obj_93327508_f905_4518_90b4_2d645f863615 o )  ) ) ( type_479c0da3_fa7e_47d8_9b72_a8b475c4b4af_Class0 ( obj_93327508_f905_4518_90b4_2d645f863615 o )  ) ) ( type_479c0da3_fa7e_47d8_9b72_a8b475c4b4af_Class41 ( obj_93327508_f905_4518_90b4_2d645f863615 o )  ) ) ( type_479c0da3_fa7e_47d8_9b72_a8b475c4b4af_Class2 ( obj_93327508_f905_4518_90b4_2d645f863615 o )  ) )):named c45))

 ;end of formula 